sat
(:max-memory            26.43
 :memory                18.21
 :num-allocs            57242
 :rlimit-count          4980
 :sat-decisions         60
 :sat-mk-clause-2ary    148
 :sat-mk-clause-nary    50
 :sat-mk-var            130
 :sat-propagations-2ary 59
 :sat-propagations-nary 11
 :time                  0.01
 :total-time            0.02)
